\* FantasyTeam *\
Maximize
OBJ: 162 x0 + 2 x1 + 40 x10 + 98 x100 + 74 x101 + x102 + 13 x103 + 104 x104
 + 2 x105 + 127 x106 + 181 x107 + x108 + 80 x109 + 157 x11 + 130 x111
 + 118 x113 + 39 x114 + 84 x115 + 100 x116 + 10 x117 + 6 x118 + 184 x12
 + 62 x121 + 117 x122 + 91 x123 + 78 x124 + 87 x125 + 16 x126 + 97 x127
 + 3 x128 + 98 x129 + 113 x13 + 94 x130 + 56 x131 + 4 x132 + 5 x133 + x134
 + 16 x136 + 35 x137 + 108 x139 + 74 x14 + 169 x142 + 76 x143 + 126 x144
 + 113 x145 + 9 x146 + 115 x147 + 136 x148 + 96 x149 + 72 x15 + 65 x150
 + 7 x151 + 34 x152 + 19 x153 + 8 x154 + 3 x155 + 39 x156 + 49 x158 + 114 x159
 + 67 x16 + 157 x160 + 125 x161 + 58 x162 + 25 x163 + 110 x164 + 13 x165
 + x166 + 177 x168 + 57 x17 + 45 x170 + 13 x171 + x172 + 154 x174 + 133 x18
 + 12 x180 + 16 x19 + 8 x20 + 59 x201 + 43 x209 + 44 x213 + 131 x214 + 7 x215
 + 136 x216 + 128 x217 + 72 x218 + 135 x219 + 13 x22 + 6 x220 + 20 x221
 + 117 x223 + 112 x224 + 77 x225 + 45 x226 + 69 x227 + 67 x228 + 36 x229
 + 128 x23 + 4 x230 + 2 x234 + 2 x235 + 75 x236 + 114 x237 + 23 x238 + 17 x239
 + 36 x24 + 53 x240 + 7 x245 + 65 x246 + 135 x247 + 24 x25 + 170 x250
 + 32 x251 + 131 x252 + 116 x253 + 95 x254 + 22 x255 + 151 x257 + 128 x258
 + 68 x259 + 154 x26 + 16 x260 + 29 x261 + 21 x262 + 18 x263 + 36 x264
 + 104 x266 + 95 x267 + 122 x268 + 123 x271 + 65 x272 + 39 x273 + 81 x274
 + 103 x275 + 61 x276 + 103 x277 + 80 x278 + 49 x279 + 120 x28 + 42 x280
 + 91 x281 + 41 x282 + 63 x283 + 95 x284 + 15 x285 + 36 x286 + 6 x287 + 16 x29
 + 209 x3 + 97 x30 + 100 x31 + 117 x32 + 31 x327 + 67 x328 + 50 x33 + 64 x34
 + 40 x35 + 84 x357 + 54 x36 + 168 x360 + 43 x361 + 99 x362 + 109 x363
 + 96 x364 + 68 x365 + 94 x366 + 25 x367 + 137 x369 + 29 x37 + 109 x370
 + 126 x371 + 134 x372 + 56 x373 + 32 x374 + 12 x375 + 23 x376 + 56 x377
 + 67 x378 + 142 x379 + 5 x38 + 73 x380 + 17 x381 + 13 x383 + 91 x385
 + 34 x386 + 6 x387 + 175 x391 + 63 x392 + 85 x393 + 33 x394 + 42 x395
 + 149 x4 + 102 x40 + 125 x401 + 131 x402 + 160 x403 + 43 x404 + 37 x405
 + 144 x406 + 108 x407 + 81 x408 + 12 x409 + 21 x41 + 6 x410 + 41 x414
 + 125 x415 + 5 x418 + 103 x42 + 79 x420 + 135 x421 + 160 x423 + 179 x424
 + 154 x425 + 113 x426 + 79 x427 + 60 x428 + 67 x429 + 56 x43 + 5 x430
 + 19 x431 + 202 x433 + 131 x434 + 135 x435 + 120 x436 + 56 x437 + 69 x438
 + 43 x439 + 61 x44 + 92 x440 + 63 x441 + 9 x442 + 2 x445 + 239 x447
 + 180 x448 + 76 x45 + 68 x450 + 47 x451 + 71 x452 + 109 x453 + 11 x454
 + 95 x456 + 43 x457 + 111 x458 + 90 x459 + 51 x460 + 56 x461 + 42 x462
 + 53 x463 + 113 x464 + x466 + 235 x467 + 148 x468 + 143 x469 + x47 + 58 x471
 + 91 x472 + 73 x473 + 38 x474 + 3 x475 + 3 x476 + x478 + 2 x479 + 2 x48
 + 111 x480 + 42 x481 + 96 x483 + 126 x486 + 51 x487 + 89 x488 + 93 x489
 + 3 x49 + 79 x490 + 59 x491 + 2 x492 + 106 x493 + 48 x494 + 62 x495 + 82 x496
 + 73 x497 + 72 x498 + 38 x499 + 137 x5 + 108 x502 + 27 x503 + 76 x504 + x505
 + 105 x509 + 85 x51 + 11 x510 + 128 x511 + 53 x512 + 119 x513 + 83 x514
 + 67 x515 + 13 x516 + 39 x517 + 3 x519 + 167 x52 + 11 x520 + 188 x522
 + 88 x523 + 50 x524 + 82 x525 + 26 x526 + 17 x527 + 48 x528 + 89 x529
 + 23 x53 + 30 x530 + 41 x531 + 114 x532 + 9 x533 + 148 x537 + 81 x538
 + 90 x539 + 56 x54 + 20 x541 + 96 x542 + 175 x543 + 117 x544 + 91 x545
 + 63 x546 + 55 x547 + 116 x548 + 78 x549 + 29 x550 + 10 x552 + x553 + x554
 + 3 x555 + 75 x556 + 80 x557 + 78 x558 + 3 x559 + 86 x560 + 46 x561 + 71 x562
 + 44 x563 + 49 x564 + 61 x566 + x568 + 135 x569 + 40 x570 + 119 x571 + 2 x572
 + 136 x573 + 16 x575 + 116 x576 + 151 x577 + 110 x578 + 125 x579 + 124 x58
 + 74 x580 + 2 x581 + 26 x583 + x584 + 147 x586 + 65 x587 + 124 x588 + 80 x589
 + 34 x590 + 14 x591 + 36 x592 + 83 x593 + x594 + 13 x595 + 92 x596 + 74 x597
 + 29 x6 + 110 x61 + 165 x62 + 46 x63 + 19 x64 + 58 x65 + 3 x67 + 67 x68
 + 137 x69 + 109 x7 + 136 x70 + 41 x71 + 40 x72 + 11 x73 + 77 x74 + 59 x75
 + 47 x76 + 8 x77 + 67 x78 + 113 x79 + 87 x8 + 115 x80 + 27 x81 + 143 x85
 + x86 + 129 x87 + 113 x88 + 115 x89 + 45 x9 + 76 x90 + 113 x91 + 52 x92
 + 37 x93 + 14 x94 + 125 x97 + 136 x98 + 113 x99
Subject To
_C1: 60 x0 + 50 x1 + 55 x10 + 55 x100 + 50 x101 + 50 x102 + 50 x103 + 50 x104
 + 50 x105 + 60 x106 + 80 x107 + 45 x108 + 55 x109 + 95 x11 + 55 x110
 + 45 x111 + 40 x112 + 45 x113 + 45 x114 + 45 x115 + 45 x116 + 45 x117
 + 45 x118 + 45 x119 + 75 x12 + 50 x120 + 60 x121 + 60 x122 + 60 x123
 + 55 x124 + 55 x125 + 55 x126 + 50 x127 + 50 x128 + 55 x129 + 65 x13
 + 50 x130 + 50 x131 + 45 x132 + 50 x133 + 45 x134 + 50 x135 + 55 x136
 + 55 x137 + 50 x138 + 50 x139 + 65 x14 + 50 x140 + 60 x141 + 75 x142
 + 50 x143 + 60 x144 + 50 x145 + 50 x146 + 55 x147 + 55 x148 + 50 x149
 + 65 x15 + 50 x150 + 45 x151 + 45 x152 + 45 x153 + 50 x154 + 45 x155
 + 45 x156 + 55 x157 + 45 x158 + 95 x159 + 60 x16 + 70 x160 + 65 x161
 + 65 x162 + 60 x163 + 55 x164 + 50 x165 + 45 x166 + 55 x167 + 75 x168
 + 65 x169 + 65 x17 + 55 x170 + 50 x171 + 45 x172 + 50 x173 + 60 x174
 + 45 x175 + 45 x176 + 55 x177 + 55 x178 + 50 x179 + 55 x18 + 50 x180
 + 45 x181 + 40 x182 + 45 x183 + 40 x184 + 40 x185 + 40 x186 + 40 x187
 + 40 x188 + 40 x189 + 55 x19 + 40 x190 + 40 x191 + 40 x192 + 40 x193
 + 50 x194 + 50 x195 + 50 x196 + 55 x197 + 50 x198 + 55 x199 + 50 x2 + 55 x20
 + 45 x200 + 55 x201 + 45 x202 + 45 x203 + 55 x204 + 50 x205 + 50 x206
 + 50 x207 + 45 x208 + 55 x209 + 55 x21 + 50 x210 + 55 x211 + 50 x212
 + 55 x213 + 50 x214 + 45 x215 + 55 x216 + 50 x217 + 50 x218 + 45 x219
 + 55 x22 + 45 x220 + 45 x221 + 45 x222 + 65 x223 + 55 x224 + 55 x225
 + 45 x226 + 50 x227 + 50 x228 + 50 x229 + 75 x23 + 50 x230 + 50 x231
 + 50 x232 + 50 x233 + 45 x234 + 45 x235 + 60 x236 + 65 x237 + 55 x238
 + 50 x239 + 75 x24 + 55 x240 + 40 x241 + 45 x242 + 50 x243 + 50 x244
 + 50 x245 + 60 x246 + 55 x247 + 50 x248 + 45 x249 + 60 x25 + 60 x250
 + 55 x251 + 50 x252 + 50 x253 + 45 x254 + 45 x255 + 40 x256 + 65 x257
 + 60 x258 + 50 x259 + 70 x26 + 55 x260 + 50 x261 + 50 x262 + 55 x263
 + 50 x264 + 55 x265 + 55 x266 + 55 x267 + 45 x268 + 40 x269 + 65 x27
 + 40 x270 + 50 x271 + 45 x272 + 45 x273 + 45 x274 + 45 x275 + 45 x276
 + 55 x277 + 55 x278 + 55 x279 + 50 x28 + 55 x280 + 50 x281 + 50 x282
 + 55 x283 + 45 x284 + 45 x285 + 55 x286 + 45 x287 + 60 x288 + 55 x289
 + 45 x29 + 50 x290 + 40 x291 + 45 x292 + 40 x293 + 40 x294 + 40 x295
 + 40 x296 + 40 x297 + 40 x298 + 40 x299 + 80 x3 + 45 x30 + 40 x300 + 40 x301
 + 40 x302 + 40 x303 + 50 x304 + 50 x305 + 45 x306 + 45 x307 + 45 x308
 + 45 x309 + 45 x31 + 50 x310 + 50 x311 + 45 x312 + 55 x313 + 50 x314
 + 45 x315 + 45 x316 + 45 x317 + 50 x318 + 40 x319 + 45 x32 + 50 x320
 + 45 x321 + 50 x322 + 50 x323 + 40 x324 + 40 x325 + 50 x326 + 40 x327
 + 50 x328 + 45 x329 + 45 x33 + 40 x330 + 40 x331 + 40 x332 + 40 x333
 + 40 x334 + 40 x335 + 40 x336 + 40 x337 + 50 x338 + 50 x339 + 45 x34
 + 50 x340 + 45 x341 + 55 x342 + 50 x343 + 55 x344 + 55 x345 + 50 x346
 + 55 x347 + 50 x348 + 50 x349 + 50 x35 + 45 x350 + 50 x351 + 45 x352
 + 50 x353 + 45 x354 + 55 x355 + 45 x356 + 50 x357 + 55 x358 + 40 x359
 + 45 x36 + 65 x360 + 45 x361 + 50 x362 + 45 x363 + 45 x364 + 45 x365
 + 45 x366 + 45 x367 + 50 x368 + 60 x369 + 45 x37 + 60 x370 + 55 x371
 + 55 x372 + 50 x373 + 50 x374 + 50 x375 + 50 x376 + 50 x377 + 50 x378
 + 60 x379 + 40 x38 + 55 x380 + 50 x381 + 45 x382 + 50 x383 + 45 x384
 + 55 x385 + 50 x386 + 40 x387 + 40 x388 + 40 x389 + 40 x39 + 40 x390
 + 65 x391 + 55 x392 + 55 x393 + 50 x394 + 50 x395 + 40 x396 + 50 x397
 + 40 x398 + 50 x399 + 65 x4 + 60 x40 + 40 x400 + 75 x401 + 70 x402 + 70 x403
 + 60 x404 + 55 x405 + 60 x406 + 55 x407 + 55 x408 + 50 x409 + 55 x41
 + 50 x410 + 50 x411 + 65 x412 + 45 x413 + 90 x414 + 75 x415 + 50 x416
 + 45 x417 + 55 x418 + 55 x419 + 55 x42 + 65 x420 + 55 x421 + 45 x422
 + 65 x423 + 60 x424 + 60 x425 + 55 x426 + 55 x427 + 55 x428 + 55 x429
 + 50 x43 + 50 x430 + 45 x431 + 45 x432 + 85 x433 + 70 x434 + 75 x435
 + 75 x436 + 70 x437 + 65 x438 + 65 x439 + 50 x44 + 60 x440 + 55 x441
 + 55 x442 + 50 x443 + 50 x444 + 45 x445 + 50 x446 + 155 x447 + 65 x448
 + 50 x449 + 50 x45 + 60 x450 + 50 x451 + 45 x452 + 50 x453 + 45 x454
 + 40 x455 + 60 x456 + 50 x457 + 50 x458 + 50 x459 + 50 x46 + 50 x460
 + 50 x461 + 45 x462 + 45 x463 + 45 x464 + 40 x465 + 40 x466 + 120 x467
 + 80 x468 + 80 x469 + 45 x47 + 70 x470 + 55 x471 + 60 x472 + 55 x473
 + 50 x474 + 50 x475 + 50 x476 + 50 x477 + 45 x478 + 45 x479 + 45 x48
 + 70 x480 + 55 x481 + 45 x482 + 50 x483 + 45 x484 + 45 x485 + 50 x486
 + 50 x487 + 50 x488 + 50 x489 + 50 x49 + 50 x490 + 50 x491 + 40 x492
 + 60 x493 + 60 x494 + 50 x495 + 60 x496 + 55 x497 + 55 x498 + 50 x499 + 60 x5
 + 60 x50 + 60 x500 + 50 x501 + 60 x502 + 60 x503 + 60 x504 + 45 x505
 + 50 x506 + 50 x507 + 45 x508 + 50 x509 + 55 x51 + 45 x510 + 50 x511
 + 50 x512 + 55 x513 + 55 x514 + 45 x515 + 45 x516 + 45 x517 + 40 x518
 + 40 x519 + 80 x52 + 45 x520 + 40 x521 + 80 x522 + 60 x523 + 55 x524
 + 55 x525 + 55 x526 + 55 x527 + 50 x528 + 50 x529 + 55 x53 + 45 x530
 + 60 x531 + 60 x532 + 55 x533 + 50 x534 + 55 x535 + 45 x536 + 50 x537
 + 55 x538 + 45 x539 + 60 x54 + 40 x540 + 45 x541 + 40 x542 + 60 x543
 + 55 x544 + 50 x545 + 50 x546 + 45 x547 + 50 x548 + 45 x549 + 55 x55
 + 45 x550 + 45 x551 + 40 x552 + 40 x553 + 40 x554 + 40 x555 + 65 x556
 + 60 x557 + 60 x558 + 65 x559 + 45 x56 + 55 x560 + 55 x561 + 50 x562
 + 55 x563 + 55 x564 + 65 x565 + 50 x566 + 50 x567 + 45 x568 + 60 x569
 + 50 x57 + 60 x570 + 60 x571 + 45 x572 + 50 x573 + 40 x574 + 45 x575
 + 50 x576 + 55 x577 + 45 x578 + 50 x579 + 45 x58 + 45 x580 + 45 x581
 + 40 x582 + 40 x583 + 40 x584 + 45 x585 + 60 x586 + 55 x587 + 55 x588
 + 50 x589 + 40 x59 + 50 x590 + 50 x591 + 50 x592 + 55 x593 + 50 x594
 + 50 x595 + 60 x596 + 55 x597 + 55 x6 + 40 x60 + 55 x61 + 55 x62 + 50 x63
 + 50 x64 + 45 x65 + 45 x66 + 40 x67 + 65 x68 + 60 x69 + 55 x7 + 60 x70
 + 60 x71 + 50 x72 + 50 x73 + 50 x74 + 50 x75 + 50 x76 + 50 x77 + 50 x78
 + 75 x79 + 55 x8 + 60 x80 + 55 x81 + 60 x82 + 50 x83 + 45 x84 + 50 x85
 + 45 x86 + 55 x87 + 50 x88 + 55 x89 + 55 x9 + 45 x90 + 45 x91 + 45 x92
 + 45 x93 + 45 x94 + 45 x95 + 45 x96 + 60 x97 + 65 x98 + 55 x99 <= 835
_C10: x537 + x538 + x539 + x540 + x541 + x542 + x543 + x544 + x545 + x546
 + x547 + x548 + x549 + x550 + x551 + x552 + x553 + x554 + x555 + x556 + x557
 + x558 + x559 + x560 + x561 + x562 + x563 + x564 + x565 + x566 + x567 + x568
 + x569 + x570 + x571 + x572 <= 3
_C11: x28 + x29 + x30 + x31 + x32 + x33 + x34 + x35 + x36 + x37 + x38 + x39
 + x40 + x41 + x42 + x43 + x44 + x45 + x46 + x47 + x48 + x49 + x50 + x51 + x52
 + x53 + x54 + x55 + x56 + x57 <= 3
_C12: x142 + x143 + x144 + x145 + x146 + x147 + x148 + x149 + x150 + x151
 + x152 + x153 + x154 + x155 + x156 + x157 + x158 + x159 + x160 + x161 + x162
 + x163 + x164 + x165 + x166 + x167 + x168 + x169 + x170 + x171 + x172 + x173
 + x174 + x175 + x176 + x177 + x178 + x179 <= 3
_C13: x180 + x181 + x182 + x183 + x184 + x185 + x186 + x187 + x188 + x189
 + x190 + x191 + x192 + x193 + x194 + x195 + x196 + x197 + x198 + x199 + x200
 + x201 + x202 + x203 + x204 + x205 + x206 + x207 + x208 + x209 + x210 + x211
 + x212 <= 3
_C14: x245 + x246 + x247 + x248 + x249 + x250 + x251 + x252 + x253 + x254
 + x255 + x256 + x257 + x258 + x259 + x260 + x261 + x262 + x263 + x264 + x265
 + x266 + x267 <= 3
_C15: x385 + x386 + x387 + x388 + x389 + x390 + x391 + x392 + x393 + x394
 + x395 + x396 + x397 + x398 + x399 + x400 + x401 + x402 + x403 + x404 + x405
 + x406 + x407 + x408 + x409 + x410 + x411 + x412 + x413 + x414 + x415 + x416
 + x417 + x418 + x419 <= 3
_C16: x509 + x510 + x511 + x512 + x513 + x514 + x515 + x516 + x517 + x518
 + x519 + x520 + x521 + x522 + x523 + x524 + x525 + x526 + x527 + x528 + x529
 + x530 + x531 + x532 + x533 + x534 + x535 + x536 <= 3
_C17: x213 + x214 + x215 + x216 + x217 + x218 + x219 + x220 + x221 + x222
 + x223 + x224 + x225 + x226 + x227 + x228 + x229 + x230 + x231 + x232 + x233
 + x234 + x235 + x236 + x237 + x238 + x239 + x240 + x241 + x242 + x243 + x244
 <= 3
_C18: x111 + x112 + x113 + x114 + x115 + x116 + x117 + x118 + x119 + x120
 + x121 + x122 + x123 + x124 + x125 + x126 + x127 + x128 + x129 + x130 + x131
 + x132 + x133 + x134 + x135 + x136 + x137 + x138 + x139 + x140 + x141 <= 3
_C19: x327 + x328 + x329 + x330 + x331 + x332 + x333 + x334 + x335 + x336
 + x337 + x338 + x339 + x340 + x341 + x342 + x343 + x344 + x345 + x346 + x347
 + x348 + x349 + x350 + x351 + x352 + x353 + x354 + x355 + x356 + x357 + x358
 + x359 <= 3
_C2: x0 + x1 + x111 + x112 + x145 + x146 + x175 + x181 + x182 + x183 + x2
 + x214 + x215 + x241 + x247 + x248 + x249 + x268 + x269 + x270 + x28 + x29
 + x291 + x292 + x293 + x294 + x321 + x329 + x330 + x331 + x354 + x356 + x361
 + x383 + x385 + x386 + x387 + x388 + x389 + x390 + x421 + x422 + x449 + x452
 + x453 + x454 + x455 + x483 + x484 + x485 + x507 + x509 + x510 + x536 + x539
 + x540 + x541 + x542 + x57 + x573 + x574 + x575 + x58 + x59 + x60 + x85 + x86
 = 1
_C20: x420 + x421 + x422 + x423 + x424 + x425 + x426 + x427 + x428 + x429
 + x430 + x431 + x432 + x433 + x434 + x435 + x436 + x437 + x438 + x439 + x440
 + x441 + x442 + x443 + x444 + x445 + x446 + x447 + x448 + x449 <= 3
_C21: x268 + x269 + x270 + x271 + x272 + x273 + x274 + x275 + x276 + x277
 + x278 + x279 + x280 + x281 + x282 + x283 + x284 + x285 + x286 + x287 + x288
 + x289 + x290 <= 3
_C22: x573 + x574 + x575 + x576 + x577 + x578 + x579 + x580 + x581 + x582
 + x583 + x584 + x585 + x586 + x587 + x588 + x589 + x590 + x591 + x592 + x593
 + x594 + x595 + x596 + x597 <= 3
_C23: x291 + x292 + x293 + x294 + x295 + x296 + x297 + x298 + x299 + x300
 + x301 + x302 + x303 + x304 + x305 + x306 + x307 + x308 + x309 + x310 + x311
 + x312 + x313 + x314 + x315 + x316 + x317 + x318 + x319 + x320 + x321 + x322
 + x323 + x324 + x325 + x326 <= 3
_C24: x58 + x59 + x60 + x61 + x62 + x63 + x64 + x65 + x66 + x67 + x68 + x69
 + x70 + x71 + x72 + x73 + x74 + x75 + x76 + x77 + x78 + x79 + x80 + x81 + x82
 + x83 + x84 <= 3
_C25: x100 + x101 + x102 + x103 + x104 + x105 + x106 + x107 + x108 + x109
 + x110 + x85 + x86 + x87 + x88 + x89 + x90 + x91 + x92 + x93 + x94 + x95
 + x96 + x97 + x98 + x99 <= 3
_C3: x10 + x113 + x114 + x115 + x116 + x117 + x118 + x119 + x120 + x130 + x139
 + x140 + x147 + x148 + x149 + x150 + x151 + x152 + x153 + x154 + x155 + x156
 + x157 + x158 + x174 + x176 + x179 + x184 + x185 + x186 + x187 + x188 + x189
 + x190 + x191 + x192 + x193 + x216 + x217 + x218 + x219 + x220 + x221 + x222
 + x234 + x242 + x243 + x250 + x251 + x252 + x253 + x254 + x255 + x256 + x271
 + x272 + x273 + x274 + x275 + x276 + x284 + x295 + x296 + x297 + x298 + x299
 + x3 + x30 + x300 + x301 + x302 + x303 + x31 + x319 + x32 + x324 + x325
 + x327 + x33 + x332 + x333 + x334 + x335 + x336 + x337 + x34 + x359 + x36
 + x362 + x363 + x364 + x365 + x366 + x367 + x368 + x37 + x38 + x384 + x39
 + x391 + x392 + x393 + x394 + x395 + x396 + x397 + x398 + x399 + x4 + x400
 + x419 + x423 + x424 + x425 + x426 + x427 + x428 + x429 + x430 + x431 + x432
 + x457 + x458 + x459 + x460 + x461 + x462 + x463 + x464 + x465 + x466 + x486
 + x487 + x488 + x489 + x490 + x491 + x492 + x5 + x508 + x511 + x512 + x513
 + x514 + x515 + x516 + x517 + x518 + x519 + x520 + x521 + x535 + x537 + x543
 + x544 + x545 + x546 + x547 + x548 + x549 + x550 + x551 + x552 + x553 + x554
 + x555 + x56 + x576 + x577 + x578 + x579 + x580 + x581 + x582 + x583 + x584
 + x585 + x61 + x62 + x63 + x64 + x65 + x66 + x67 + x7 + x8 + x83 + x84 + x87
 + x88 + x9 + x90 + x91 + x92 + x93 + x94 + x95 + x96 = 3
_C4: x100 + x101 + x102 + x103 + x104 + x105 + x106 + x11 + x110 + x12 + x121
 + x122 + x123 + x124 + x126 + x127 + x128 + x129 + x13 + x131 + x132 + x133
 + x134 + x135 + x14 + x142 + x143 + x15 + x159 + x16 + x160 + x161 + x162
 + x163 + x164 + x165 + x166 + x167 + x17 + x177 + x178 + x18 + x180 + x19
 + x194 + x195 + x196 + x197 + x198 + x199 + x20 + x200 + x201 + x202 + x203
 + x21 + x210 + x211 + x213 + x22 + x223 + x224 + x225 + x226 + x227 + x228
 + x229 + x230 + x231 + x232 + x233 + x235 + x240 + x244 + x245 + x246 + x257
 + x258 + x259 + x26 + x260 + x261 + x262 + x263 + x264 + x265 + x27 + x277
 + x278 + x279 + x280 + x281 + x282 + x283 + x285 + x289 + x290 + x304 + x305
 + x306 + x307 + x308 + x309 + x310 + x311 + x312 + x314 + x315 + x318 + x320
 + x322 + x323 + x326 + x328 + x338 + x339 + x340 + x341 + x342 + x343 + x344
 + x347 + x348 + x35 + x352 + x353 + x355 + x357 + x358 + x360 + x369 + x370
 + x371 + x372 + x373 + x374 + x375 + x376 + x377 + x378 + x40 + x401 + x402
 + x403 + x404 + x405 + x406 + x407 + x408 + x409 + x41 + x410 + x411 + x412
 + x413 + x416 + x418 + x42 + x420 + x43 + x433 + x434 + x435 + x436 + x438
 + x439 + x44 + x440 + x441 + x442 + x443 + x444 + x445 + x446 + x448 + x45
 + x450 + x451 + x456 + x46 + x467 + x468 + x469 + x47 + x470 + x471 + x472
 + x473 + x474 + x475 + x476 + x477 + x478 + x479 + x48 + x49 + x493 + x494
 + x495 + x496 + x497 + x498 + x499 + x50 + x500 + x501 + x506 + x51 + x522
 + x523 + x524 + x525 + x526 + x527 + x528 + x529 + x530 + x534 + x538 + x54
 + x556 + x557 + x558 + x559 + x560 + x561 + x562 + x563 + x564 + x565 + x566
 + x567 + x568 + x569 + x586 + x587 + x588 + x589 + x590 + x591 + x592 + x593
 + x594 + x595 + x6 + x68 + x69 + x70 + x71 + x72 + x73 + x74 + x75 + x76
 + x77 + x78 + x79 + x89 + x97 + x98 + x99 = 4
_C5: x107 + x108 + x109 + x125 + x136 + x137 + x138 + x141 + x144 + x168
 + x169 + x170 + x171 + x172 + x173 + x204 + x205 + x206 + x207 + x208 + x209
 + x212 + x23 + x236 + x237 + x238 + x239 + x24 + x25 + x266 + x267 + x286
 + x287 + x288 + x313 + x316 + x317 + x345 + x346 + x349 + x350 + x351 + x379
 + x380 + x381 + x382 + x414 + x415 + x417 + x437 + x447 + x480 + x481 + x482
 + x502 + x503 + x504 + x505 + x52 + x53 + x531 + x532 + x533 + x55 + x570
 + x571 + x572 + x596 + x597 + x80 + x81 + x82 = 3
_C6: x450 + x451 + x452 + x453 + x454 + x455 + x456 + x457 + x458 + x459
 + x460 + x461 + x462 + x463 + x464 + x465 + x466 + x467 + x468 + x469 + x470
 + x471 + x472 + x473 + x474 + x475 + x476 + x477 + x478 + x479 + x480 + x481
 + x482 <= 3
_C7: x360 + x361 + x362 + x363 + x364 + x365 + x366 + x367 + x368 + x369
 + x370 + x371 + x372 + x373 + x374 + x375 + x376 + x377 + x378 + x379 + x380
 + x381 + x382 + x383 + x384 <= 3
_C8: x0 + x1 + x10 + x11 + x12 + x13 + x14 + x15 + x16 + x17 + x18 + x19 + x2
 + x20 + x21 + x22 + x23 + x24 + x25 + x26 + x27 + x3 + x4 + x5 + x6 + x7 + x8
 + x9 <= 3
_C9: x483 + x484 + x485 + x486 + x487 + x488 + x489 + x490 + x491 + x492
 + x493 + x494 + x495 + x496 + x497 + x498 + x499 + x500 + x501 + x502 + x503
 + x504 + x505 + x506 + x507 + x508 <= 3
Binaries
x0
x1
x10
x100
x101
x102
x103
x104
x105
x106
x107
x108
x109
x11
x110
x111
x112
x113
x114
x115
x116
x117
x118
x119
x12
x120
x121
x122
x123
x124
x125
x126
x127
x128
x129
x13
x130
x131
x132
x133
x134
x135
x136
x137
x138
x139
x14
x140
x141
x142
x143
x144
x145
x146
x147
x148
x149
x15
x150
x151
x152
x153
x154
x155
x156
x157
x158
x159
x16
x160
x161
x162
x163
x164
x165
x166
x167
x168
x169
x17
x170
x171
x172
x173
x174
x175
x176
x177
x178
x179
x18
x180
x181
x182
x183
x184
x185
x186
x187
x188
x189
x19
x190
x191
x192
x193
x194
x195
x196
x197
x198
x199
x2
x20
x200
x201
x202
x203
x204
x205
x206
x207
x208
x209
x21
x210
x211
x212
x213
x214
x215
x216
x217
x218
x219
x22
x220
x221
x222
x223
x224
x225
x226
x227
x228
x229
x23
x230
x231
x232
x233
x234
x235
x236
x237
x238
x239
x24
x240
x241
x242
x243
x244
x245
x246
x247
x248
x249
x25
x250
x251
x252
x253
x254
x255
x256
x257
x258
x259
x26
x260
x261
x262
x263
x264
x265
x266
x267
x268
x269
x27
x270
x271
x272
x273
x274
x275
x276
x277
x278
x279
x28
x280
x281
x282
x283
x284
x285
x286
x287
x288
x289
x29
x290
x291
x292
x293
x294
x295
x296
x297
x298
x299
x3
x30
x300
x301
x302
x303
x304
x305
x306
x307
x308
x309
x31
x310
x311
x312
x313
x314
x315
x316
x317
x318
x319
x32
x320
x321
x322
x323
x324
x325
x326
x327
x328
x329
x33
x330
x331
x332
x333
x334
x335
x336
x337
x338
x339
x34
x340
x341
x342
x343
x344
x345
x346
x347
x348
x349
x35
x350
x351
x352
x353
x354
x355
x356
x357
x358
x359
x36
x360
x361
x362
x363
x364
x365
x366
x367
x368
x369
x37
x370
x371
x372
x373
x374
x375
x376
x377
x378
x379
x38
x380
x381
x382
x383
x384
x385
x386
x387
x388
x389
x39
x390
x391
x392
x393
x394
x395
x396
x397
x398
x399
x4
x40
x400
x401
x402
x403
x404
x405
x406
x407
x408
x409
x41
x410
x411
x412
x413
x414
x415
x416
x417
x418
x419
x42
x420
x421
x422
x423
x424
x425
x426
x427
x428
x429
x43
x430
x431
x432
x433
x434
x435
x436
x437
x438
x439
x44
x440
x441
x442
x443
x444
x445
x446
x447
x448
x449
x45
x450
x451
x452
x453
x454
x455
x456
x457
x458
x459
x46
x460
x461
x462
x463
x464
x465
x466
x467
x468
x469
x47
x470
x471
x472
x473
x474
x475
x476
x477
x478
x479
x48
x480
x481
x482
x483
x484
x485
x486
x487
x488
x489
x49
x490
x491
x492
x493
x494
x495
x496
x497
x498
x499
x5
x50
x500
x501
x502
x503
x504
x505
x506
x507
x508
x509
x51
x510
x511
x512
x513
x514
x515
x516
x517
x518
x519
x52
x520
x521
x522
x523
x524
x525
x526
x527
x528
x529
x53
x530
x531
x532
x533
x534
x535
x536
x537
x538
x539
x54
x540
x541
x542
x543
x544
x545
x546
x547
x548
x549
x55
x550
x551
x552
x553
x554
x555
x556
x557
x558
x559
x56
x560
x561
x562
x563
x564
x565
x566
x567
x568
x569
x57
x570
x571
x572
x573
x574
x575
x576
x577
x578
x579
x58
x580
x581
x582
x583
x584
x585
x586
x587
x588
x589
x59
x590
x591
x592
x593
x594
x595
x596
x597
x6
x60
x61
x62
x63
x64
x65
x66
x67
x68
x69
x7
x70
x71
x72
x73
x74
x75
x76
x77
x78
x79
x8
x80
x81
x82
x83
x84
x85
x86
x87
x88
x89
x9
x90
x91
x92
x93
x94
x95
x96
x97
x98
x99
End
